set VV := 0 1 2 3 4 5 6 7 8 9 10 11 12 13 ;
set VS := 0 1 2 3 4 5 6 7 8 9 10 11 12 13 14 15 16 17 18 19 20 21 22 23 24 25 26 27 28 29 30 31 ;
param cv := 
0 16
1 18
2 17
3 15
4 21
5 21
6 15
7 24
8 18
9 16
10 22
11 25
12 10
13 25
;
param cs := 
0 36
1 25
2 32
3 37
4 20
5 37
6 36
7 25
8 25
9 26
10 24
11 32
12 38
13 36
14 28
15 24
16 36
17 30
18 39
19 25
20 32
21 31
22 21
23 33
24 26
25 35
26 36
27 37
28 28
29 21
30 31
31 38
;
param bv:	 0 1 2 3 4 5 6 7 8 9 10 11 12 13 := 
		0 0 0 0 0 0 0 0 0 14 0 0 0 0 0 
		1 0 0 25 0 0 0 0 0 0 0 0 24 0 10 
		2 0 0 0 18 0 12 0 0 0 0 0 0 12 0 
		3 0 0 0 0 0 0 0 0 0 0 0 0 25 0 
		4 0 0 0 0 0 20 0 0 0 0 0 0 0 0 
		5 0 0 0 0 0 0 0 0 21 11 0 0 0 0 
		6 0 0 0 0 0 0 0 0 0 0 0 0 17 0 
		7 0 0 0 0 0 0 0 0 0 0 18 13 0 0 
		8 0 0 0 0 0 0 0 0 0 0 0 0 0 0 
		9 0 0 0 0 0 0 0 0 0 0 0 0 0 0 
		10 0 0 0 0 0 0 0 0 0 0 0 16 0 0 
		11 0 0 0 0 0 0 0 0 0 0 0 0 0 0 
		12 0 0 0 0 0 0 0 0 0 0 0 0 0 0 
		13 0 0 0 0 0 0 0 0 0 0 0 0 0 0 
;
param bs:	 0 1 2 3 4 5 6 7 8 9 10 11 12 13 14 15 16 17 18 19 20 21 22 23 24 25 26 27 28 29 30 31 := 
		0 0 0 0 20 0 0 0 0 0 0 0 0 0 0 0 0 0 0 0 0 0 0 27 34 36 0 0 0 0 0 0 0 
		1 0 0 0 0 0 0 0 0 36 0 0 0 0 0 0 0 0 0 0 0 0 39 20 0 0 0 0 0 0 0 0 0 
		2 0 0 0 0 0 0 0 35 28 0 0 0 0 0 0 0 0 0 0 0 40 0 37 0 0 0 0 0 0 0 0 0 
		3 20 0 0 0 0 0 0 0 0 0 0 32 0 0 0 0 0 0 0 22 0 0 0 20 0 0 0 0 0 0 0 0 
		4 0 0 0 0 0 0 0 0 0 0 0 0 0 0 0 28 0 0 0 0 0 26 0 0 0 0 0 39 28 0 0 0 
		5 0 0 0 0 0 0 0 0 0 0 0 0 0 26 0 0 0 0 0 0 0 0 0 0 0 0 0 0 0 0 0 0 
		6 0 0 0 0 0 0 0 0 0 0 0 0 0 0 34 0 0 0 0 26 0 0 0 0 0 0 0 0 0 0 0 0 
		7 0 0 35 0 0 0 0 0 0 0 36 0 0 0 0 0 0 0 0 0 0 0 0 0 0 0 0 0 0 0 0 0 
		8 0 36 28 0 0 0 0 0 0 0 0 0 0 0 0 0 0 0 0 0 0 37 26 0 0 26 0 0 0 0 0 27 
		9 0 0 0 0 0 0 0 0 0 0 0 0 0 0 0 0 0 0 0 0 0 0 23 0 0 34 0 0 0 0 0 0 
		10 0 0 0 0 0 0 0 36 0 0 0 0 21 0 0 0 0 0 0 0 0 0 29 0 0 0 0 0 0 0 0 0 
		11 0 0 0 32 0 0 0 0 0 0 0 0 20 0 0 0 0 28 0 0 23 27 0 0 0 0 0 0 0 0 0 0 
		12 0 0 0 0 0 0 0 0 0 0 21 20 0 0 0 0 0 0 0 0 0 0 0 0 0 0 0 0 37 37 0 0 
		13 0 0 0 0 0 26 0 0 0 0 0 0 0 0 34 0 0 0 0 0 0 0 0 0 0 0 0 0 0 0 0 0 
		14 0 0 0 0 0 0 34 0 0 0 0 0 0 34 0 0 26 0 0 0 20 0 35 0 30 0 0 0 0 0 0 0 
		15 0 0 0 0 28 0 0 0 0 0 0 0 0 0 0 0 0 20 0 0 22 0 0 0 0 0 0 0 0 0 30 0 
		16 0 0 0 0 0 0 0 0 0 0 0 0 0 0 26 0 0 0 0 0 0 0 0 0 0 0 0 0 0 0 0 0 
		17 0 0 0 0 0 0 0 0 0 0 0 28 0 0 0 20 0 0 0 0 0 0 0 0 0 0 36 0 0 0 0 0 
		18 0 0 0 0 0 0 0 0 0 0 0 0 0 0 0 0 0 0 0 0 0 32 0 0 0 0 34 0 23 28 23 0 
		19 0 0 0 22 0 0 26 0 0 0 0 0 0 0 0 0 0 0 0 0 30 0 0 0 0 38 0 0 0 0 0 0 
		20 0 0 40 0 0 0 0 0 0 0 0 23 0 0 20 22 0 0 0 30 0 0 0 0 0 0 0 0 0 0 0 0 
		21 0 39 0 0 26 0 0 0 37 0 0 27 0 0 0 0 0 0 32 0 0 0 0 0 22 0 0 0 20 0 0 0 
		22 27 20 37 0 0 0 0 0 26 23 29 0 0 0 35 0 0 0 0 0 0 0 0 0 0 0 0 0 0 0 0 0 
		23 34 0 0 20 0 0 0 0 0 0 0 0 0 0 0 0 0 0 0 0 0 0 0 0 0 36 0 0 0 0 0 0 
		24 36 0 0 0 0 0 0 0 0 0 0 0 0 0 30 0 0 0 0 0 0 22 0 0 0 0 0 0 0 0 21 0 
		25 0 0 0 0 0 0 0 0 26 34 0 0 0 0 0 0 0 0 0 38 0 0 0 36 0 0 0 0 0 0 0 0 
		26 0 0 0 0 0 0 0 0 0 0 0 0 0 0 0 0 0 36 34 0 0 0 0 0 0 0 0 0 0 0 33 37 
		27 0 0 0 0 39 0 0 0 0 0 0 0 0 0 0 0 0 0 0 0 0 0 0 0 0 0 0 0 0 0 0 0 
		28 0 0 0 0 28 0 0 0 0 0 0 0 37 0 0 0 0 0 23 0 0 20 0 0 0 0 0 0 0 0 29 0 
		29 0 0 0 0 0 0 0 0 0 0 0 0 37 0 0 0 0 0 28 0 0 0 0 0 0 0 0 0 0 0 0 0 
		30 0 0 0 0 0 0 0 0 0 0 0 0 0 0 0 30 0 0 23 0 0 0 0 0 21 0 33 0 29 0 0 0 
		31 0 0 0 0 0 0 0 0 27 0 0 0 0 0 0 0 0 0 0 0 0 0 0 0 0 0 37 0 0 0 0 0 
;
